NAME : rbg403.1170.tour
COMMENT : Length = 1170
COMMENT : Found by LKH [Keld Helsgaun] Sat May 25 06:41:46 2013
TYPE : TOUR
DIMENSION : 81
TOUR_SECTION
273
42
176
172
253
91
70
239
230
175
178
59
234
381
36
212
346
38
110
112
249
25
255
163
195
325
180
376
128
78
101
45
107
124
106
20
111
150
348
34
223
187
184
18
129
83
242
113
48
215
130
109
121
189
8
39
194
81
285
330
236
66
385
384
68
136
271
43
362
52
61
79
284
24
63
14
307
116
183
33
275
-1
EOF
